COLUMNS

passenger_count
pickup_ID
dropoff_ID
request_time_sec
pickup_district
dropoff_district
LDuals
IDuals
vehicle_ID
pick_position
drop_position

REQUESTS_INFO
1      1175      1159      30910     129       84        157       157       4         1         2         
3      1693      628       30558     142       189       0         0         105       1         2         
1      47        551       30905     98        189       148       148       165       1         2         
1      1065      1036      30880     291       84        155       155       470       1         2         
1      1066      748       30906     291       290       113       113       689       1         2         
3      940       738       30854     291       189       207       207       748       1         3         
2      452       742       30930     52        290       0         0         0         0         0         
1      863       368       30931     290       299       0         0         0         0         0         
2      99        208       30932     286       286       0         0         0         0         0         
1      666       662       30932     131       131       0         0         0         0         0         
3      99        208       30932     286       286       0         0         0         0         0         
2      654       793       30933     189       290       0         0         0         0         0         
3      654       793       30933     189       290       0         0         0         0         0         
1      47        9         30933     98        98        0         0         0         0         0         
1      530       81        30933     189       98        0         0         0         0         0         
1      726       803       30934     290       291       0         0         0         0         0         
1      396       156       30934     119       286       0         0         0         0         0         
2      837       782       30935     290       291       0         0         0         0         0         
1      865       969       30935     290       290       0         0         0         0         0         
1      646       527       30935     280       52        0         0         0         0         0         
1      352       621       30937     119       280       0         0         0         0         0         
2      597       735       30937     131       131       0         0         0         0         0         
3      618       571       30937     131       52        0         0         0         0         0         
1      668       716       30937     280       189       0         0         0         0         0         
3      618       571       30937     131       52        0         0         0         0         0         
1      969       811       30938     290       290       0         0         0         0         0         
2      314       556       30938     119       199       0         0         0         0         0         
1      527       593       30939     52        52        0         0         0         0         0         
1      417       399       30939     100       168       0         0         0         0         0         
1      606       527       30940     189       52        0         0         0         0         0         
1      443       702       30940     168       290       0         0         0         0         0         
2      1091      1218      30940     291       84        0         0         0         0         0         
2      532       556       30940     199       199       0         0         0         0         0         
1      770       644       30941     290       131       0         0         0         0         0         
1      733       873       30942     131       291       0         0         0         0         0         
1      277       233       30942     87        206       0         0         0         0         0         
2      1046      910       30942     291       290       0         0         0         0         0         
1      621       686       30942     280       131       0         0         0         0         0         
1      888       813       30942     290       290       0         0         0         0         0         
1      331       252       30943     127       206       0         0         0         0         0         
1      907       696       30943     290       189       0         0         0         0         0         
1      376       528       30943     168       52        0         0         0         0         0         
1      333       141       30944     119       54        0         0         0         0         0         
2      949       1127      30944     290       291       0         0         0         0         0         
1      1417      914       30944     129       291       0         0         0         0         0         
1      183       527       30944     178       52        0         0         0         0         0         
1      718       913       30945     189       291       0         0         0         0         0         
1      788       884       30945     290       290       0         0         0         0         0         
2      738       367       30945     189       299       0         0         0         0         0         
3      738       367       30945     189       299       0         0         0         0         0         
1      628       598       30947     189       189       0         0         0         0         0         
1      556       79        30948     199       98        0         0         0         0         0         
2      817       622       30949     290       280       0         0         0         0         0         
3      817       622       30949     290       280       0         0         0         0         0         
1      735       650       30949     131       189       0         0         0         0         0         
1      508       305       30950     199       299       0         0         0         0         0         
1      390       526       30950     52        52        0         0         0         0         0         
2      61        373       30950     98        119       0         0         0         0         0         
3      61        373       30950     98        119       0         0         0         0         0         
2      909       984       30950     290       291       0         0         0         0         0         
3      909       984       30950     290       291       0         0         0         0         0         
1      526       693       30951     52        280       0         0         0         0         0         
3      717       96        30952     189       9         0         0         0         0         0         
1      621       693       30952     280       280       0         0         0         0         0         
1      81        1010      30952     98        290       0         0         0         0         0         
1      1265      1197      30952     192       129       0         0         0         0         0         
3      929       630       30953     290       189       0         0         0         0         0         
2      929       630       30953     290       189       0         0         0         0         0         
2      791       600       30953     290       280       0         0         0         0         0         
1      439       593       30954     189       52        0         0         0         0         0         
1      291       556       30954     87        199       0         0         0         0         0         
1      215       184       30954     178       87        0         0         0         0         0         
2      814       581       30955     290       189       0         0         0         0         0         
3      1002      851       30955     291       291       0         0         0         0         0         
1      1043      1107      30955     291       291       0         0         0         0         0         
1      338       349       30955     277       127       0         0         0         0         0         
1      64        458       30956     98        52        0         0         0         0         0         
1      781       691       30956     291       131       0         0         0         0         0         
1      816       505       30956     290       52        0         0         0         0         0         
2      325       888       30957     299       290       0         0         0         0         0         
1      758       686       30957     131       131       0         0         0         0         0         
2      913       1044      30958     291       291       0         0         0         0         0         
1      258       22        30959     87        98        0         0         0         0         0         
1      1362      1195      30959     129       129       0         0         0         0         0         
1      693       22        30959     280       98        0         0         0         0         0         
